(declare-fun temp908_1 () (_ BitVec 64))
(declare-fun var465453 () (_ BitVec 64))
(declare-fun temp908_2 () (_ BitVec 64))
(declare-fun var465469 () (_ BitVec 64))
(declare-fun temp908_3 () (_ BitVec 64))
(declare-fun var465473 () (_ BitVec 64))
(declare-fun var465478 () (_ BitVec 64))
(declare-fun var465479 () (_ BitVec 64))
(declare-fun ARGNAME_input_NAMEEND_DIM () (_ BitVec 64))
(declare-fun var465480 () (_ BitVec 64))
(declare-fun var465483 () (_ BitVec 64))
(declare-fun var465484 () (_ BitVec 64))
(declare-fun var465485 () (_ BitVec 64))
(declare-fun temp908_4 () (_ BitVec 64))
(declare-fun var465486 () (_ BitVec 64))
(declare-fun temp908_5 () (_ BitVec 64))
(declare-fun var465487 () (_ BitVec 64))
(declare-fun temp908_6 () (_ BitVec 64))
(declare-fun var465488 () (_ BitVec 64))
(declare-fun temp908_7 () (_ BitVec 64))
(declare-fun var465522 () (_ BitVec 64))
(declare-fun temp908_8 () (_ BitVec 64))
(declare-fun temp908_10 () (_ BitVec 64))
(declare-fun temp908_9 () (_ BitVec 64))
(declare-fun temp908_12 () (_ BitVec 64))
(declare-fun temp908_11 () (_ BitVec 64))
(declare-fun temp908_13 () (_ BitVec 64))
(declare-fun var863614 () (_ BitVec 64))
(declare-fun temp908_14 () (_ BitVec 64))
(declare-fun var863635 () (_ BitVec 64))
(declare-fun var997081 () (_ BitVec 64))
(declare-fun var997085 () (_ BitVec 64))
(declare-fun var997343 () (_ BitVec 64))
(declare-fun var997345 () (_ BitVec 64))
(declare-fun temp908_15 () (_ BitVec 64))
(declare-fun ARGNAME_weight_NAMEEND_DIM () (_ BitVec 64))
(declare-fun var997372 () (_ BitVec 64))
(declare-fun temp908_16 () (_ BitVec 64))
(declare-fun var997373 () (_ BitVec 64))
(declare-fun temp908_17 () (_ BitVec 64))
(declare-fun temp908_18 () (_ BitVec 64))
(declare-fun ARGNAME_groups_NAMEEND () (_ BitVec 64))
(declare-fun var997418 () (_ BitVec 64))
(declare-fun temp908_19 () (_ BitVec 64))
(declare-fun ARGNAME_stride_NAMEEND_LEN () (_ BitVec 64))
(declare-fun ARGNAME_padding_NAMEEND_LEN () (_ BitVec 64))
(declare-fun ARGNAME_dilation_NAMEEND_LEN () (_ BitVec 64))
(declare-fun var1716000 () (_ BitVec 64))
(declare-fun temp908_20 () (_ BitVec 64))
(declare-fun temp908_21 () (_ BitVec 64))
(declare-fun ARGNAME_padding_NAMEEND_VAL () (Array (_ BitVec 64) (_ BitVec 64)))
(declare-fun temp908_22 () (_ BitVec 64))
(declare-fun temp908_23 () (_ BitVec 64))
(declare-fun temp908_24 () (_ BitVec 64))
(declare-fun temp908_25 () (_ BitVec 64))
(declare-fun temp908_26 () (_ BitVec 64))
(declare-fun temp908_27 () (_ BitVec 64))
(declare-fun temp908_28 () (_ BitVec 64))
(declare-fun temp908_29 () (_ BitVec 64))
(declare-fun temp908_30 () (_ BitVec 64))
(declare-fun temp908_31 () (_ BitVec 64))
(declare-fun temp908_32 () (_ BitVec 64))
(declare-fun temp908_33 () (_ BitVec 64))
(declare-fun temp908_34 () (_ BitVec 64))
(declare-fun temp908_35 () (_ BitVec 64))
(declare-fun temp908_36 () (_ BitVec 64))
(declare-fun temp908_37 () (_ BitVec 64))
(declare-fun temp908_38 () (_ BitVec 64))
(declare-fun temp908_39 () (_ BitVec 64))
(declare-fun temp908_40 () (_ BitVec 64))
(declare-fun temp908_41 () (_ BitVec 64))
(declare-fun temp908_42 () (_ BitVec 64))
(declare-fun temp908_43 () (_ BitVec 64))
(declare-fun temp908_44 () (_ BitVec 64))
(declare-fun temp908_45 () (_ BitVec 64))
(declare-fun temp908_46 () (_ BitVec 64))
(declare-fun temp908_47 () (_ BitVec 64))
(declare-fun temp908_48 () (_ BitVec 64))
(declare-fun temp908_49 () (_ BitVec 64))
(declare-fun temp908_50 () (_ BitVec 64))
(declare-fun temp908_51 () (_ BitVec 64))
(declare-fun temp908_52 () (_ BitVec 64))
(declare-fun temp908_53 () (_ BitVec 64))
(declare-fun temp908_54 () (_ BitVec 64))
(declare-fun temp908_55 () (_ BitVec 64))
(declare-fun temp908_56 () (_ BitVec 64))
(declare-fun temp908_57 () (_ BitVec 64))
(declare-fun temp908_58 () (_ BitVec 64))
(declare-fun temp908_59 () (_ BitVec 64))
(declare-fun temp908_60 () (_ BitVec 64))
(declare-fun temp908_61 () (_ BitVec 64))
(declare-fun var1716002 () (_ BitVec 64))
(declare-fun temp908_62 () (_ BitVec 64))
(declare-fun temp908_63 () (_ BitVec 64))
(declare-fun temp908_64 () (_ BitVec 64))
(declare-fun ARGNAME_stride_NAMEEND_VAL () (Array (_ BitVec 64) (_ BitVec 64)))
(declare-fun temp908_65 () (_ BitVec 64))
(declare-fun temp908_66 () (_ BitVec 64))
(declare-fun temp908_67 () (_ BitVec 64))
(declare-fun temp908_68 () (_ BitVec 64))
(declare-fun temp908_69 () (_ BitVec 64))
(declare-fun temp908_70 () (_ BitVec 64))
(declare-fun temp908_71 () (_ BitVec 64))
(declare-fun temp908_72 () (_ BitVec 64))
(declare-fun temp908_73 () (_ BitVec 64))
(declare-fun temp908_74 () (_ BitVec 64))
(declare-fun temp908_75 () (_ BitVec 64))
(declare-fun temp908_76 () (_ BitVec 64))
(declare-fun temp908_77 () (_ BitVec 64))
(declare-fun temp908_78 () (_ BitVec 64))
(declare-fun temp908_79 () (_ BitVec 64))
(declare-fun temp908_80 () (_ BitVec 64))
(declare-fun temp908_81 () (_ BitVec 64))
(declare-fun temp908_82 () (_ BitVec 64))
(declare-fun temp908_83 () (_ BitVec 64))
(declare-fun temp908_84 () (_ BitVec 64))
(declare-fun temp908_85 () (_ BitVec 64))
(declare-fun temp908_86 () (_ BitVec 64))
(declare-fun temp908_87 () (_ BitVec 64))
(declare-fun temp908_88 () (_ BitVec 64))
(declare-fun temp908_89 () (_ BitVec 64))
(declare-fun temp908_90 () (_ BitVec 64))
(declare-fun temp908_91 () (_ BitVec 64))
(declare-fun temp908_92 () (_ BitVec 64))
(declare-fun temp908_93 () (_ BitVec 64))
(declare-fun temp908_94 () (_ BitVec 64))
(declare-fun temp908_95 () (_ BitVec 64))
(declare-fun temp908_96 () (_ BitVec 64))
(declare-fun temp908_97 () (_ BitVec 64))
(declare-fun temp908_98 () (_ BitVec 64))
(declare-fun temp908_99 () (_ BitVec 64))
(declare-fun temp908_100 () (_ BitVec 64))
(declare-fun temp908_101 () (_ BitVec 64))
(declare-fun temp908_102 () (_ BitVec 64))
(declare-fun temp908_103 () (_ BitVec 64))
(declare-fun temp908_104 () (_ BitVec 64))
(declare-fun var1716023 () (_ BitVec 64))
(declare-fun temp908_105 () (_ BitVec 64))
(declare-fun temp908_106 () (_ BitVec 64))
(declare-fun var1704114 () (_ BitVec 64))
(declare-fun temp908_107 () (_ BitVec 64))
(declare-fun temp908_108 () (_ BitVec 64))
(declare-fun ARGNAME_weight_NAMEEND_DIMSIZE
             ()
             (Array (_ BitVec 64) (_ BitVec 64)))
(declare-fun temp908_109 () (_ BitVec 64))
(declare-fun temp908_110 () (_ BitVec 64))
(declare-fun temp908_111 () (_ BitVec 64))
(declare-fun temp908_112 () (_ BitVec 64))
(declare-fun temp908_113 () (_ BitVec 64))
(declare-fun temp908_114 () (_ BitVec 64))
(declare-fun temp908_115 () (_ BitVec 64))
(declare-fun temp908_116 () (_ BitVec 64))
(declare-fun temp908_117 () (_ BitVec 64))
(declare-fun temp908_118 () (_ BitVec 64))
(declare-fun temp908_119 () (_ BitVec 64))
(declare-fun temp908_120 () (_ BitVec 64))
(declare-fun temp908_121 () (_ BitVec 64))
(declare-fun temp908_122 () (_ BitVec 64))
(declare-fun temp908_123 () (_ BitVec 64))
(declare-fun temp908_124 () (_ BitVec 64))
(declare-fun temp908_126 () (_ BitVec 64))
(declare-fun temp908_127 () (_ BitVec 64))
(declare-fun temp908_125 () (_ BitVec 64))
(declare-fun var1716068 () (_ BitVec 64))
(declare-fun temp908_128 () (_ BitVec 64))
(declare-fun temp908_129 () (_ BitVec 64))
(declare-fun temp908_131 () (_ BitVec 64))
(declare-fun temp908_132 () (_ BitVec 64))
(declare-fun temp908_130 () (_ BitVec 64))
(declare-fun var1716090 () (_ BitVec 64))
(declare-fun temp908_133 () (_ BitVec 64))
(declare-fun var1716091 () (_ BitVec 64))
(declare-fun temp908_134 () (_ BitVec 64))
(declare-fun var1716110 () (_ BitVec 64))
(declare-fun temp908_135 () (_ BitVec 64))
(declare-fun var1716111 () (_ BitVec 64))
(declare-fun temp908_136 () (_ BitVec 64))
(declare-fun temp908_137 () (_ BitVec 64))
(declare-fun var1705002 () (_ BitVec 64))
(declare-fun temp908_139 () (_ BitVec 64))
(declare-fun temp908_140 () (_ BitVec 64))
(declare-fun temp908_138 () (_ BitVec 64))
(declare-fun var1716123 () (_ BitVec 64))
(declare-fun temp908_141 () (_ BitVec 64))
(declare-fun temp908_143 () (_ BitVec 64))
(declare-fun temp908_144 () (_ BitVec 64))
(declare-fun temp908_142 () (_ BitVec 64))
(declare-fun temp908_145 () (_ BitVec 64))
(declare-fun var1979241 () (_ BitVec 64))
(declare-fun temp908_146 () (_ BitVec 64))
(declare-fun var1716281 () (_ BitVec 64))
(declare-fun temp908_147 () (_ BitVec 64))
(declare-fun var997490 () (_ BitVec 64))
(declare-fun temp908_148 () (_ BitVec 64))
(declare-fun temp908_149 () (_ BitVec 64))
(declare-fun var997620 () (_ BitVec 64))
(declare-fun var3486185 () (_ BitVec 64))
(declare-fun temp908_150 () (_ BitVec 64))
(declare-fun var3686207 () (_ BitVec 64))
(declare-fun var3686209 () (_ BitVec 64))
(declare-fun var3686166 () (_ BitVec 64))
(declare-fun var997633 () (_ BitVec 64))
(declare-fun temp908_151 () (_ BitVec 64))
(declare-fun var3815043 () (_ BitVec 64))
(declare-fun var3815045 () (_ BitVec 64))
(declare-fun var3880588 () (_ BitVec 64))
(declare-fun var3880589 () (_ BitVec 64))
(declare-fun var4796816 () (_ BitVec 64))
(declare-fun var5058960 () (_ BitVec 64))
(declare-fun temp908_152 () (_ BitVec 64))
(assert (= temp908_1 #x0000000000000001))
(assert (= var465453 temp908_1))
(assert (= temp908_2 #x0000000000000001))
(assert (= var465469 (bvadd var465453 temp908_2)))
(assert (= temp908_3 #x0000000000000002))
(assert (= var465473 (bvadd var465453 temp908_3)))
(assert (= var465478 var465473))
(assert (= var465479
   (ite (= ARGNAME_input_NAMEEND_DIM var465478)
        #x0000000000000001
        #x0000000000000000)))
(assert (= var465480 var465479))
(assert (= var465483 var465469))
(assert (= var465484
   (ite (distinct ARGNAME_input_NAMEEND_DIM var465483)
        #x0000000000000001
        #x0000000000000000)))
(assert (= var465485 var465480))
(assert (= temp908_4 #x0000000000000001))
(assert (= var465486 (bvand var465485 temp908_4)))
(assert (= temp908_5 #x0000000000000000))
(assert (= var465487
   (ite (= var465486 temp908_5) #x0000000000000001 #x0000000000000000)))
(assert (= var465488 (bvand var465484 var465487)))
(assert (= temp908_6 #x0000000000000000))
(assert (= var465488 temp908_6))
(assert (= temp908_7 #x0000000000000000))
(assert (= var465522
   (ite (= var465485 temp908_7) #x0000000000000001 #x0000000000000000)))
(assert (= temp908_8 #x0000000000000001))
(assert (= var465522 temp908_8))
(assert (= temp908_10 #x0000000000000000))
(assert (= temp908_9 temp908_10))
(assert (= temp908_12 #x0000000000000001))
(assert (= temp908_11 temp908_12))
(assert (= temp908_13 #x0000000000000000))
(assert (= var863614 temp908_13))
(assert (= temp908_14 #x0000000000000001))
(assert (= var863635 temp908_14))
(assert (= var997081 var863614))
(assert (= var997085 var863635))
(assert (= var997343 var997081))
(assert (= var997345 var997085))
(assert (= temp908_15 #xfffffffffffffffe))
(assert (= var997372 (bvadd ARGNAME_weight_NAMEEND_DIM temp908_15)))
(assert (= temp908_16 #x0000000000000003))
(assert (= var997373
   (ite (bvslt ARGNAME_weight_NAMEEND_DIM temp908_16)
        #x0000000000000001
        #x0000000000000000)))
(assert (= temp908_17 #x0000000000000000))
(assert (= var997373 temp908_17))
(assert (= temp908_18 #x0000000000000001))
(assert (= var997418
   (ite (bvslt ARGNAME_groups_NAMEEND temp908_18)
        #x0000000000000001
        #x0000000000000000)))
(assert (= temp908_19 #x0000000000000000))
(assert (= var997418 temp908_19))
(assert (= ARGNAME_stride_NAMEEND_LEN var997372))
(assert (= ARGNAME_padding_NAMEEND_LEN var997372))
(assert (= ARGNAME_dilation_NAMEEND_LEN var997372))
(assert (= var1716000 var997343))
(assert (= temp908_20 #x0000000000000000))
(assert (= temp908_21 temp908_20))
(assert (= temp908_22 (select ARGNAME_padding_NAMEEND_VAL temp908_21)))
(assert (= temp908_23 #x0000000000000001))
(assert (= temp908_24 temp908_23))
(assert (= temp908_25 (select ARGNAME_padding_NAMEEND_VAL temp908_24)))
(assert (= temp908_26 #x0000000000000002))
(assert (= temp908_27 temp908_26))
(assert (= temp908_28 (select ARGNAME_padding_NAMEEND_VAL temp908_27)))
(assert (= temp908_29 #x0000000000000003))
(assert (= temp908_30 temp908_29))
(assert (= temp908_31 (select ARGNAME_padding_NAMEEND_VAL temp908_30)))
(assert (= temp908_32 #x0000000000000004))
(assert (= temp908_33 temp908_32))
(assert (= temp908_34 (select ARGNAME_padding_NAMEEND_VAL temp908_33)))
(assert (= temp908_35 #x0000000000000005))
(assert (= temp908_36 temp908_35))
(assert (= temp908_37 (select ARGNAME_padding_NAMEEND_VAL temp908_36)))
(assert (= temp908_38 #x0000000000000000))
(assert (= temp908_39 #x0000000000000000))
(assert (= temp908_40 temp908_39))
(assert (= temp908_41 (select ARGNAME_padding_NAMEEND_VAL temp908_40)))
(assert (= temp908_42 #x0000000000000000))
(assert (= temp908_43 #x0000000000000001))
(assert (= temp908_44 temp908_43))
(assert (= temp908_45 (select ARGNAME_padding_NAMEEND_VAL temp908_44)))
(assert (= temp908_46 #x0000000000000000))
(assert (= temp908_47 #x0000000000000002))
(assert (= temp908_48 temp908_47))
(assert (= temp908_49 (select ARGNAME_padding_NAMEEND_VAL temp908_48)))
(assert (= temp908_50 #x0000000000000000))
(assert (= temp908_51 #x0000000000000003))
(assert (= temp908_52 temp908_51))
(assert (= temp908_53 (select ARGNAME_padding_NAMEEND_VAL temp908_52)))
(assert (= temp908_54 #x0000000000000000))
(assert (= temp908_55 #x0000000000000004))
(assert (= temp908_56 temp908_55))
(assert (= temp908_57 (select ARGNAME_padding_NAMEEND_VAL temp908_56)))
(assert (= temp908_58 #x0000000000000000))
(assert (= temp908_59 #x0000000000000005))
(assert (= temp908_60 temp908_59))
(assert (= temp908_61 (select ARGNAME_padding_NAMEEND_VAL temp908_60)))
(assert (= var1716002
   (ite (and true
             (bvslt temp908_41 temp908_38)
             (bvslt temp908_45 temp908_42)
             (bvslt temp908_49 temp908_46)
             (bvslt temp908_53 temp908_50)
             (bvslt temp908_57 temp908_54)
             (bvslt temp908_61 temp908_58))
        #x0000000000000001
        #x0000000000000000)))
(assert (= temp908_62 #x0000000000000000))
(assert (= var1716002 temp908_62))
(assert (= temp908_63 #x0000000000000000))
(assert (= temp908_64 temp908_63))
(assert (= temp908_65 (select ARGNAME_stride_NAMEEND_VAL temp908_64)))
(assert (= temp908_66 #x0000000000000001))
(assert (= temp908_67 temp908_66))
(assert (= temp908_68 (select ARGNAME_stride_NAMEEND_VAL temp908_67)))
(assert (= temp908_69 #x0000000000000002))
(assert (= temp908_70 temp908_69))
(assert (= temp908_71 (select ARGNAME_stride_NAMEEND_VAL temp908_70)))
(assert (= temp908_72 #x0000000000000003))
(assert (= temp908_73 temp908_72))
(assert (= temp908_74 (select ARGNAME_stride_NAMEEND_VAL temp908_73)))
(assert (= temp908_75 #x0000000000000004))
(assert (= temp908_76 temp908_75))
(assert (= temp908_77 (select ARGNAME_stride_NAMEEND_VAL temp908_76)))
(assert (= temp908_78 #x0000000000000005))
(assert (= temp908_79 temp908_78))
(assert (= temp908_80 (select ARGNAME_stride_NAMEEND_VAL temp908_79)))
(assert (= temp908_81 #x0000000000000000))
(assert (= temp908_82 #x0000000000000000))
(assert (= temp908_83 temp908_82))
(assert (= temp908_84 (select ARGNAME_stride_NAMEEND_VAL temp908_83)))
(assert (= temp908_85 #x0000000000000000))
(assert (= temp908_86 #x0000000000000001))
(assert (= temp908_87 temp908_86))
(assert (= temp908_88 (select ARGNAME_stride_NAMEEND_VAL temp908_87)))
(assert (= temp908_89 #x0000000000000000))
(assert (= temp908_90 #x0000000000000002))
(assert (= temp908_91 temp908_90))
(assert (= temp908_92 (select ARGNAME_stride_NAMEEND_VAL temp908_91)))
(assert (= temp908_93 #x0000000000000000))
(assert (= temp908_94 #x0000000000000003))
(assert (= temp908_95 temp908_94))
(assert (= temp908_96 (select ARGNAME_stride_NAMEEND_VAL temp908_95)))
(assert (= temp908_97 #x0000000000000000))
(assert (= temp908_98 #x0000000000000004))
(assert (= temp908_99 temp908_98))
(assert (= temp908_100 (select ARGNAME_stride_NAMEEND_VAL temp908_99)))
(assert (= temp908_101 #x0000000000000000))
(assert (= temp908_102 #x0000000000000005))
(assert (= temp908_103 temp908_102))
(assert (= temp908_104 (select ARGNAME_stride_NAMEEND_VAL temp908_103)))
(assert (= var1716023
   (ite (and true
             (bvsle temp908_84 temp908_81)
             (bvsle temp908_88 temp908_85)
             (bvsle temp908_92 temp908_89)
             (bvsle temp908_96 temp908_93)
             (bvsle temp908_100 temp908_97)
             (bvsle temp908_104 temp908_101))
        #x0000000000000001
        #x0000000000000000)))
(assert (= temp908_105 #x0000000000000000))
(assert (= var1716023 temp908_105))
(assert (= temp908_106 #x0000000000000000))
(assert (= var1704114 temp908_106))
(assert (= temp908_107 #x0000000000000000))
(assert (= temp908_108 temp908_107))
(assert (= temp908_109 (select ARGNAME_weight_NAMEEND_DIMSIZE temp908_108)))
(assert (= temp908_110 #x0000000000000001))
(assert (= temp908_111 temp908_110))
(assert (= temp908_112 (select ARGNAME_weight_NAMEEND_DIMSIZE temp908_111)))
(assert (= temp908_113 #x0000000000000002))
(assert (= temp908_114 temp908_113))
(assert (= temp908_115 (select ARGNAME_weight_NAMEEND_DIMSIZE temp908_114)))
(assert (= temp908_116 #x0000000000000003))
(assert (= temp908_117 temp908_116))
(assert (= temp908_118 (select ARGNAME_weight_NAMEEND_DIMSIZE temp908_117)))
(assert (= temp908_119 #x0000000000000004))
(assert (= temp908_120 temp908_119))
(assert (= temp908_121 (select ARGNAME_weight_NAMEEND_DIMSIZE temp908_120)))
(assert (= temp908_122 #x0000000000000005))
(assert (= temp908_123 temp908_122))
(assert (= temp908_124 (select ARGNAME_weight_NAMEEND_DIMSIZE temp908_123)))
(assert (= temp908_126 var1704114))
(assert (= temp908_127 (select ARGNAME_weight_NAMEEND_DIMSIZE temp908_126)))
(assert (= temp908_125 temp908_127))
(assert (= var1716068
   (ite (bvslt temp908_125 ARGNAME_groups_NAMEEND)
        #x0000000000000001
        #x0000000000000000)))
(assert (= temp908_128 #x0000000000000000))
(assert (= var1716068 temp908_128))
(assert (= temp908_129 #x0000000000000000))
(assert (= var1704114 temp908_129))
(assert (= temp908_131 var1704114))
(assert (= temp908_132 (select ARGNAME_weight_NAMEEND_DIMSIZE temp908_131)))
(assert (= temp908_130 temp908_132))
(assert (= var1716090 (bvsmod temp908_130 ARGNAME_groups_NAMEEND)))
(assert (= temp908_133 #x0000000000000000))
(assert (= var1716091
   (ite (= var1716090 temp908_133) #x0000000000000001 #x0000000000000000)))
(assert (= temp908_134 #x0000000000000001))
(assert (= var1716091 temp908_134))
(assert (= var1716110 var1716000))
(assert (= temp908_135 #x0000000000000000))
(assert (= var1716111
   (ite (= var1716110 temp908_135) #x0000000000000001 #x0000000000000000)))
(assert (= temp908_136 #x0000000000000001))
(assert (= var1716111 temp908_136))
(assert (= temp908_137 #x0000000000000001))
(assert (= var1705002 temp908_137))
(assert (= temp908_139 var1705002))
(assert (= temp908_140 (select ARGNAME_weight_NAMEEND_DIMSIZE temp908_139)))
(assert (= temp908_138 temp908_140))
(assert (= var1716123 (bvmul ARGNAME_groups_NAMEEND temp908_138)))
(assert (= temp908_141 #x0000000000000000))
(assert (= var1704114 temp908_141))
(assert (= temp908_143 var1704114))
(assert (= temp908_144 (select ARGNAME_weight_NAMEEND_DIMSIZE temp908_143)))
(assert (= temp908_142 temp908_144))
(assert (= temp908_145 #x0000000000000002))
(assert (= var1979241 temp908_145))
(assert (= temp908_146 #x0000000000000001))
(assert (= var1716281 temp908_146))
(assert (= temp908_147 #x0000000000000003))
(assert (= var997490
   (ite (= ARGNAME_weight_NAMEEND_DIM temp908_147)
        #x0000000000000001
        #x0000000000000000)))
(assert (= temp908_148 #x0000000000000001))
(assert (= var997490 temp908_148))
(assert (= temp908_149 #x0000000000000001))
(assert (= var997620 temp908_149))
(assert (= var3486185 var997620))
(assert (= temp908_150 #x0000000000000000))
(assert (= var3686207 temp908_150))
(assert (= var3686209 var3686207))
(assert (= var3686166 var3686209))
(assert (= var997633 var3686166))
(assert (= temp908_151 #x0000000000000002))
(assert (= var3815043 temp908_151))
(assert (= var3815045 (bvsub ARGNAME_weight_NAMEEND_DIM var3815043)))
(assert (= var3880588 var3815043))
(assert (= var3880589 var3815045))
(assert (= var4796816 var997633))
(assert (= var5058960 var997633))
(assert (= temp908_152 #x0000000000000001))
(assert (= var997490 temp908_152))
(model-add temp908_1 () (_ BitVec 64) #x0000000000000001)
(model-add var465453 () (_ BitVec 64) #x0000000000000001)
(model-add temp908_2 () (_ BitVec 64) #x0000000000000001)
(model-add var465469 () (_ BitVec 64) #x0000000000000002)
(model-add temp908_3 () (_ BitVec 64) #x0000000000000002)
(model-add var465473 () (_ BitVec 64) #x0000000000000003)
(model-add var465478 () (_ BitVec 64) #x0000000000000003)
(model-add var465479
           ()
           (_ BitVec 64)
           (ite (= ARGNAME_input_NAMEEND_DIM #x0000000000000003)
                #x0000000000000001
                #x0000000000000000))
(model-add var465480
           ()
           (_ BitVec 64)
           (ite (= ARGNAME_input_NAMEEND_DIM #x0000000000000003)
                #x0000000000000001
                #x0000000000000000))
(model-add var465483 () (_ BitVec 64) #x0000000000000002)
(model-add var465484
           ()
           (_ BitVec 64)
           (ite (= ARGNAME_input_NAMEEND_DIM #x0000000000000002)
                #x0000000000000000
                #x0000000000000001))
(model-add var465485
           ()
           (_ BitVec 64)
           (ite (= ARGNAME_input_NAMEEND_DIM #x0000000000000003)
                #x0000000000000001
                #x0000000000000000))
(model-add temp908_4 () (_ BitVec 64) #x0000000000000001)
(model-add var465486
           ()
           (_ BitVec 64)
           (concat #b000000000000000000000000000000000000000000000000000000000000000
                   (ite (= ARGNAME_input_NAMEEND_DIM #x0000000000000003)
                        #b1
                        #b0)))
(model-add temp908_5 () (_ BitVec 64) #x0000000000000000)
(model-add var465487
           ()
           (_ BitVec 64)
           (ite (= ARGNAME_input_NAMEEND_DIM #x0000000000000003)
                #x0000000000000000
                #x0000000000000001))
(model-add temp908_6 () (_ BitVec 64) #x0000000000000000)
(model-add var465488 () (_ BitVec 64) #x0000000000000000)





